80
2217
4
26
59
24
92
0 1
0 2
0 5
0 7
0 8
0 9
0 10
0 11
0 13
0 14
0 15
0 17
0 18
0 19
0 20
0 23
0 24
0 26
0 27
0 28
0 29
0 30
0 32
0 33
0 35
0 38
0 39
0 41
0 42
0 43
0 44
0 45
0 46
0 48
0 49
0 50
0 51
0 53
0 54
0 56
0 57
0 59
0 61
0 62
0 63
0 64
0 65
0 68
0 69
0 74
0 75
0 76
0 77
0 78
0 79
1 2
1 3
1 5
1 6
1 8
1 9
1 10
1 11
1 12
1 15
1 16
1 17
1 18
1 19
1 20
1 21
1 22
1 23
1 25
1 26
1 28
1 29
1 30
1 31
1 33
1 34
1 35
1 37
1 38
1 41
1 42
1 43
1 44
1 45
1 46
1 47
1 48
1 50
1 52
1 53
1 54
1 56
1 57
1 58
1 59
1 62
1 64
1 67
1 68
1 69
1 70
1 71
1 72
1 73
1 74
1 75
1 76
1 77
1 78
2 3
2 8
2 9
2 10
2 12
2 13
2 14
2 15
2 16
2 17
2 18
2 20
2 21
2 22
2 23
2 24
2 25
2 26
2 27
2 28
2 29
2 31
2 33
2 34
2 36
2 37
2 38
2 40
2 42
2 43
2 44
2 45
2 46
2 48
2 49
2 50
2 52
2 57
2 58
2 59
2 60
2 61
2 62
2 63
2 64
2 65
2 67
2 68
2 69
2 70
2 71
2 72
2 74
2 75
2 77
2 78
2 79
3 5
3 6
3 7
3 8
3 9
3 10
3 11
3 13
3 14
3 15
3 17
3 19
3 20
3 22
3 23
3 24
3 27
3 29
3 30
3 33
3 34
3 35
3 36
3 38
3 39
3 40
3 41
3 43
3 44
3 49
3 51
3 52
3 54
3 55
3 57
3 60
3 61
3 62
3 63
3 65
3 67
3 68
3 69
3 70
3 73
3 74
3 76
4 5
4 6
4 7
4 8
4 9
4 13
4 14
4 15
4 16
4 17
4 18
4 19
4 20
4 21
4 22
4 24
4 25
4 26
4 27
4 28
4 29
4 31
4 32
4 33
4 35
4 37
4 40
4 42
4 43
4 44
4 45
4 46
4 47
4 48
4 49
4 51
4 52
4 53
4 54
4 55
4 57
4 58
4 59
4 60
4 62
4 64
4 65
4 66
4 67
4 70
4 72
4 75
4 76
4 77
4 78
4 79
5 8
5 9
5 10
5 11
5 12
5 14
5 18
5 21
5 22
5 26
5 27
5 28
5 29
5 30
5 31
5 32
5 33
5 35
5 38
5 39
5 40
5 41
5 42
5 43
5 44
5 45
5 46
5 47
5 48
5 51
5 55
5 57
5 58
5 59
5 60
5 61
5 64
5 66
5 68
5 69
5 70
5 71
5 72
5 74
5 75
5 77
5 78
6 11
6 12
6 13
6 14
6 16
6 17
6 21
6 22
6 23
6 24
6 25
6 26
6 27
6 28
6 29
6 30
6 31
6 32
6 33
6 34
6 35
6 36
6 38
6 39
6 40
6 41
6 44
6 45
6 46
6 48
6 49
6 51
6 53
6 54
6 55
6 56
6 57
6 58
6 59
6 60
6 61
6 62
6 63
6 65
6 66
6 67
6 68
6 69
6 70
6 72
6 73
6 74
6 75
6 76
6 77
6 79
7 9
7 10
7 11
7 12
7 13
7 14
7 15
7 16
7 18
7 19
7 20
7 22
7 23
7 25
7 26
7 27
7 28
7 29
7 30
7 32
7 33
7 34
7 35
7 36
7 37
7 38
7 39
7 41
7 43
7 44
7 45
7 46
7 48
7 50
7 51
7 52
7 53
7 54
7 55
7 56
7 58
7 60
7 61
7 63
7 66
7 69
7 70
7 71
7 72
7 73
7 74
7 75
7 76
7 77
7 78
7 79
8 9
8 11
8 12
8 14
8 15
8 17
8 19
8 20
8 23
8 24
8 25
8 28
8 29
8 31
8 32
8 33
8 34
8 36
8 37
8 40
8 41
8 43
8 45
8 46
8 48
8 49
8 50
8 51
8 52
8 53
8 58
8 59
8 61
8 63
8 65
8 66
8 67
8 70
8 72
8 75
8 77
8 79
9 10
9 11
9 14
9 15
9 16
9 17
9 18
9 19
9 20
9 21
9 24
9 25
9 26
9 28
9 29
9 30
9 31
9 33
9 34
9 35
9 37
9 38
9 39
9 40
9 41
9 42
9 44
9 45
9 47
9 51
9 52
9 53
9 54
9 55
9 57
9 60
9 61
9 62
9 63
9 64
9 65
9 66
9 68
9 69
9 70
9 72
9 73
9 74
9 75
9 77
9 78
10 11
10 12
10 13
10 14
10 15
10 16
10 17
10 19
10 20
10 22
10 23
10 24
10 25
10 27
10 30
10 31
10 32
10 33
10 34
10 35
10 36
10 37
10 38
10 39
10 41
10 42
10 43
10 44
10 47
10 48
10 49
10 50
10 52
10 53
10 55
10 57
10 58
10 59
10 61
10 62
10 67
10 68
10 69
10 70
10 71
10 73
10 74
10 75
10 78
10 79
11 14
11 16
11 17
11 18
11 19
11 20
11 21
11 22
11 23
11 24
11 25
11 27
11 31
11 33
11 34
11 35
11 37
11 42
11 43
11 46
11 47
11 48
11 49
11 50
11 51
11 52
11 53
11 55
11 56
11 57
11 58
11 59
11 60
11 61
11 63
11 64
11 65
11 66
11 67
11 68
11 69
11 70
11 71
11 72
11 73
11 74
11 76
11 78
11 79
12 13
12 14
12 15
12 16
12 17
12 20
12 21
12 22
12 25
12 26
12 27
12 29
12 31
12 32
12 33
12 37
12 38
12 40
12 43
12 44
12 47
12 50
12 52
12 53
12 54
12 55
12 59
12 60
12 61
12 63
12 64
12 67
12 68
12 70
12 71
12 72
12 73
12 74
12 77
12 79
13 15
13 16
13 19
13 20
13 21
13 22
13 23
13 24
13 25
13 26
13 29
13 30
13 32
13 33
13 34
13 35
13 36
13 37
13 40
13 41
13 43
13 45
13 48
13 49
13 50
13 51
13 53
13 54
13 56
13 58
13 59
13 60
13 61
13 62
13 63
13 64
13 65
13 66
13 68
13 69
13 70
13 71
13 72
13 73
13 75
13 78
13 79
14 15
14 16
14 18
14 19
14 21
14 24
14 25
14 26
14 27
14 28
14 29
14 30
14 31
14 33
14 34
14 35
14 36
14 37
14 38
14 39
14 40
14 42
14 44
14 46
14 48
14 49
14 51
14 52
14 53
14 54
14 55
14 57
14 58
14 60
14 63
14 64
14 65
14 66
14 67
14 68
14 69
14 70
14 71
14 72
14 73
14 75
14 77
14 78
14 79
15 17
15 19
15 20
15 21
15 23
15 24
15 26
15 28
15 29
15 33
15 34
15 37
15 38
15 40
15 41
15 42
15 43
15 44
15 45
15 46
15 47
15 49
15 50
15 52
15 54
15 55
15 56
15 58
15 60
15 61
15 62
15 63
15 64
15 65
15 68
15 69
15 71
15 72
15 73
15 75
15 76
15 78
16 19
16 20
16 21
16 22
16 23
16 24
16 25
16 26
16 27
16 28
16 31
16 32
16 33
16 34
16 36
16 38
16 40
16 41
16 43
16 44
16 47
16 48
16 49
16 51
16 53
16 54
16 57
16 59
16 60
16 61
16 64
16 65
16 66
16 68
16 69
16 70
16 71
16 72
16 75
16 76
16 78
16 79
17 19
17 20
17 21
17 22
17 23
17 24
17 26
17 28
17 29
17 30
17 31
17 33
17 34
17 36
17 37
17 38
17 40
17 41
17 42
17 44
17 47
17 48
17 49
17 50
17 51
17 52
17 53
17 54
17 56
17 57
17 58
17 60
17 61
17 62
17 63
17 64
17 65
17 66
17 68
17 70
17 74
17 75
17 76
17 77
17 79
18 19
18 26
18 27
18 28
18 30
18 31
18 33
18 34
18 35
18 41
18 42
18 43
18 44
18 45
18 48
18 49
18 50
18 52
18 53
18 54
18 55
18 56
18 58
18 59
18 61
18 62
18 63
18 64
18 65
18 66
18 67
18 68
18 69
18 70
18 72
18 73
18 75
18 76
18 77
18 78
18 79
19 21
19 22
19 23
19 24
19 25
19 27
19 29
19 30
19 31
19 32
19 34
19 36
19 38
19 39
19 40
19 41
19 42
19 43
19 44
19 46
19 48
19 49
19 50
19 51
19 52
19 53
19 54
19 55
19 56
19 57
19 58
19 60
19 61
19 62
19 63
19 64
19 65
19 66
19 69
19 70
19 71
19 73
19 74
19 75
19 76
19 78
19 79
20 21
20 22
20 24
20 26
20 27
20 29
20 30
20 31
20 32
20 33
20 34
20 38
20 39
20 40
20 41
20 42
20 43
20 44
20 45
20 46
20 47
20 48
20 50
20 51
20 52
20 53
20 55
20 56
20 57
20 58
20 61
20 62
20 63
20 64
20 66
20 67
20 68
20 69
20 70
20 72
20 73
20 74
20 75
20 77
20 79
21 22
21 24
21 25
21 27
21 28
21 29
21 30
21 31
21 32
21 33
21 34
21 35
21 37
21 38
21 39
21 40
21 41
21 42
21 44
21 45
21 46
21 47
21 48
21 49
21 51
21 52
21 54
21 56
21 57
21 59
21 61
21 62
21 63
21 66
21 68
21 72
21 73
21 74
21 75
21 77
21 78
21 79
22 23
22 24
22 26
22 27
22 29
22 30
22 31
22 33
22 35
22 37
22 38
22 40
22 41
22 43
22 45
22 46
22 51
22 52
22 53
22 54
22 55
22 56
22 58
22 59
22 60
22 61
22 63
22 64
22 65
22 66
22 67
22 68
22 69
22 70
22 71
22 75
22 76
22 78
22 79
23 24
23 25
23 26
23 27
23 28
23 29
23 31
23 32
23 34
23 37
23 38
23 39
23 40
23 42
23 43
23 44
23 45
23 46
23 47
23 48
23 49
23 52
23 54
23 56
23 57
23 58
23 59
23 61
23 62
23 63
23 64
23 65
23 66
23 67
23 68
23 69
23 70
23 71
23 72
23 73
23 74
23 75
23 76
23 77
23 78
24 25
24 26
24 27
24 28
24 31
24 32
24 33
24 36
24 37
24 38
24 39
24 40
24 41
24 43
24 44
24 45
24 46
24 47
24 48
24 50
24 51
24 52
24 53
24 54
24 55
24 56
24 58
24 59
24 60
24 61
24 62
24 63
24 65
24 66
24 67
24 68
24 70
24 71
24 73
24 75
24 79
25 27
25 28
25 29
25 30
25 32
25 34
25 35
25 37
25 38
25 39
25 40
25 41
25 42
25 44
25 46
25 47
25 48
25 49
25 51
25 52
25 53
25 54
25 55
25 56
25 60
25 62
25 63
25 68
25 71
25 72
25 73
25 74
25 75
25 76
25 77
25 78
26 27
26 28
26 30
26 31
26 32
26 33
26 34
26 35
26 36
26 37
26 38
26 41
26 42
26 45
26 47
26 48
26 49
26 51
26 52
26 53
26 54
26 55
26 56
26 57
26 61
26 62
26 63
26 64
26 66
26 67
26 68
26 69
26 70
26 73
26 74
26 75
26 78
26 79
27 30
27 31
27 32
27 34
27 35
27 38
27 39
27 42
27 44
27 47
27 48
27 50
27 51
27 53
27 54
27 55
27 56
27 57
27 58
27 60
27 61
27 62
27 63
27 65
27 66
27 68
27 70
27 71
27 72
27 74
27 76
27 78
27 79
28 29
28 30
28 31
28 32
28 33
28 34
28 35
28 36
28 37
28 38
28 39
28 40
28 41
28 42
28 43
28 44
28 48
28 49
28 50
28 51
28 53
28 56
28 58
28 60
28 61
28 63
28 65
28 66
28 67
28 68
28 70
28 71
28 72
28 73
28 74
28 75
28 76
28 77
28 78
28 79
29 30
29 31
29 32
29 33
29 34
29 35
29 36
29 38
29 39
29 40
29 41
29 42
29 45
29 47
29 48
29 49
29 53
29 54
29 55
29 56
29 57
29 58
29 59
29 60
29 61
29 62
29 63
29 64
29 67
29 68
29 69
29 70
29 72
29 73
29 74
29 75
29 76
29 77
29 78
29 79
30 31
30 32
30 33
30 34
30 35
30 38
30 40
30 41
30 44
30 46
30 48
30 49
30 50
30 51
30 52
30 57
30 58
30 59
30 64
30 65
30 67
30 69
30 70
30 71
30 72
30 75
30 76
30 77
30 78
30 79
31 33
31 34
31 35
31 36
31 37
31 38
31 39
31 40
31 41
31 46
31 48
31 49
31 50
31 51
31 52
31 54
31 55
31 57
31 58
31 59
31 60
31 62
31 63
31 64
31 65
31 66
31 67
31 68
31 69
31 70
31 71
31 76
31 77
31 78
31 79
32 34
32 35
32 36
32 37
32 38
32 39
32 40
32 41
32 42
32 44
32 46
32 49
32 50
32 51
32 52
32 55
32 56
32 57
32 58
32 61
32 63
32 65
32 66
32 68
32 69
32 70
32 72
32 73
32 74
32 77
32 78
32 79
33 34
33 35
33 36
33 37
33 38
33 39
33 43
33 44
33 45
33 46
33 47
33 48
33 49
33 50
33 52
33 53
33 54
33 55
33 56
33 58
33 59
33 60
33 61
33 62
33 64
33 65
33 66
33 67
33 68
33 69
33 70
33 71
33 72
33 74
33 76
33 77
33 78
33 79
34 35
34 38
34 40
34 41
34 42
34 43
34 44
34 46
34 47
34 49
34 50
34 51
34 52
34 53
34 54
34 56
34 58
34 59
34 61
34 62
34 64
34 66
34 69
34 70
34 73
34 74
34 76
34 78
34 79
35 36
35 38
35 40
35 41
35 43
35 44
35 45
35 46
35 48
35 49
35 50
35 51
35 52
35 54
35 55
35 59
35 62
35 63
35 64
35 68
35 70
35 71
35 72
35 73
35 75
35 76
35 77
35 79
36 38
36 39
36 40
36 41
36 43
36 44
36 45
36 47
36 49
36 50
36 51
36 52
36 53
36 54
36 55
36 56
36 57
36 58
36 59
36 61
36 63
36 64
36 66
36 67
36 69
36 70
36 71
36 72
36 74
36 75
36 76
36 77
36 78
36 79
37 39
37 40
37 41
37 43
37 44
37 45
37 50
37 51
37 52
37 54
37 55
37 56
37 57
37 58
37 59
37 60
37 61
37 63
37 64
37 66
37 67
37 68
37 70
37 71
37 72
37 73
37 74
37 77
37 79
38 39
38 40
38 41
38 42
38 43
38 45
38 47
38 48
38 50
38 51
38 52
38 53
38 54
38 55
38 56
38 57
38 58
38 61
38 62
38 63
38 64
38 67
38 68
38 69
38 71
38 74
38 75
38 76
38 77
38 79
39 40
39 43
39 44
39 46
39 51
39 53
39 54
39 55
39 56
39 57
39 58
39 60
39 62
39 63
39 64
39 65
39 66
39 67
39 68
39 69
39 70
39 71
39 72
39 73
39 74
39 75
39 76
39 78
40 41
40 42
40 43
40 44
40 47
40 48
40 49
40 50
40 51
40 53
40 55
40 56
40 57
40 58
40 59
40 60
40 61
40 63
40 65
40 66
40 67
40 69
40 70
40 71
40 73
40 75
40 78
41 42
41 43
41 44
41 45
41 46
41 47
41 48
41 49
41 50
41 52
41 54
41 55
41 56
41 58
41 60
41 61
41 64
41 65
41 67
41 68
41 69
41 70
41 73
41 74
41 78
41 79
42 44
42 45
42 46
42 47
42 51
42 52
42 53
42 55
42 56
42 57
42 58
42 59
42 60
42 62
42 63
42 64
42 66
42 70
42 72
42 74
42 76
42 77
42 78
43 44
43 46
43 49
43 50
43 52
43 53
43 54
43 55
43 57
43 58
43 59
43 61
43 63
43 64
43 65
43 66
43 68
43 69
43 70
43 72
43 76
43 77
43 78
43 79
44 45
44 46
44 48
44 49
44 51
44 53
44 54
44 56
44 57
44 60
44 62
44 64
44 66
44 67
44 69
44 70
44 71
44 72
44 73
44 75
44 76
44 77
44 78
44 79
45 46
45 47
45 48
45 50
45 51
45 52
45 53
45 54
45 56
45 57
45 58
45 59
45 60
45 61
45 62
45 63
45 68
45 69
45 72
45 73
45 75
45 76
45 77
45 78
46 47
46 48
46 51
46 53
46 54
46 56
46 57
46 58
46 59
46 62
46 63
46 65
46 67
46 69
46 71
46 72
46 73
46 74
46 75
46 76
46 77
46 78
46 79
47 48
47 49
47 50
47 51
47 53
47 54
47 55
47 56
47 57
47 58
47 61
47 64
47 65
47 66
47 67
47 68
47 69
47 71
47 73
47 74
47 76
47 79
48 49
48 50
48 51
48 52
48 53
48 54
48 55
48 56
48 59
48 61
48 62
48 63
48 64
48 67
48 69
48 71
48 73
48 74
48 75
48 76
49 50
49 52
49 53
49 54
49 56
49 58
49 59
49 60
49 64
49 65
49 67
49 69
49 70
49 71
49 72
49 73
49 75
49 78
49 79
50 51
50 52
50 53
50 54
50 57
50 59
50 60
50 61
50 62
50 63
50 65
50 68
50 71
50 72
50 73
50 74
50 75
50 76
50 77
50 78
51 52
51 53
51 54
51 55
51 56
51 57
51 59
51 60
51 62
51 66
51 68
51 69
51 70
51 71
51 72
51 73
51 74
51 75
51 76
51 77
51 78
51 79
52 53
52 54
52 55
52 56
52 57
52 58
52 59
52 60
52 61
52 62
52 63
52 67
52 68
52 71
52 72
52 73
52 74
52 75
52 77
53 58
53 59
53 63
53 65
53 66
53 68
53 69
53 70
53 71
53 73
53 74
53 75
53 76
53 79
54 55
54 56
54 59
54 61
54 63
54 64
54 66
54 70
54 71
54 73
54 74
54 75
54 77
54 78
54 79
55 57
55 58
55 59
55 61
55 62
55 63
55 64
55 66
55 67
55 68
55 69
55 72
55 74
55 75
55 77
55 78
55 79
56 58
56 62
56 63
56 65
56 68
56 72
56 74
56 76
56 77
56 79
57 58
57 59
57 61
57 62
57 63
57 64
57 65
57 66
57 68
57 69
57 70
57 71
57 72
57 74
57 75
57 76
57 77
57 78
58 59
58 60
58 61
58 62
58 64
58 65
58 66
58 68
58 70
58 71
58 72
58 73
58 74
58 75
58 76
58 77
58 78
58 79
59 60
59 61
59 65
59 67
59 68
59 70
59 72
59 74
59 75
59 76
59 78
60 62
60 63
60 64
60 65
60 66
60 67
60 70
60 72
60 73
60 74
60 75
60 76
60 78
60 79
61 62
61 63
61 65
61 67
61 68
61 69
61 70
61 71
61 72
61 73
61 74
61 75
61 76
61 77
61 78
61 79
62 64
62 65
62 66
62 67
62 69
62 71
62 74
62 75
62 76
62 78
63 64
63 65
63 66
63 69
63 70
63 71
63 72
63 75
63 76
63 78
64 65
64 69
64 70
64 71
64 73
64 75
64 76
64 77
64 78
64 79
65 66
65 67
65 68
65 69
65 71
65 73
65 74
65 75
65 78
65 79
66 67
66 71
66 73
66 75
66 77
66 78
66 79
67 69
67 72
67 75
67 77
67 78
67 79
68 69
68 70
68 73
68 74
68 75
68 76
68 77
68 78
68 79
69 70
69 72
69 74
69 75
69 77
69 78
69 79
70 72
70 74
70 76
70 77
70 78
70 79
71 72
71 73
71 77
71 78
71 79
72 73
72 74
72 75
72 76
72 79
73 74
73 76
73 77
73 78
73 79
74 75
74 76
74 77
74 78
74 79
75 76
76 77
76 78
76 79
77 78
77 79
61 5 12 18 20 21 27 78 55 28 77 41 49 30 44 13 56 76 57 19
64 50 52 47 75 60 9 14 26 17 40 43 33 51 0 38 35 11 23 7
39 37 42 4 72 32 1 67 69 16 53 79 34 3 22 8 6 24 54 48
59 31 71 15 65 62 68 10 45 63 29 66 46 73 74 2 58 25 36 70
